p cnf 22 10
e 1 0
a 2 0
e 3 0
a 4 5 6 7 0
e 8 9 10 11 12 0
a 13 14 15 0
e 16 17 18 0
a 19 20 21 0
e 22 0
-20 16 -5 22 0
-15 5 -12 0
-8 -22 0
18 6 20 0
-1 -17 -11 7 0
-2 -14 -11 -5 1 0
-5 7 15 11 12 0
-8 2 -1 0
-12 15 11 -21 -18 0
15 -9 -8 -20 0
